50 8
105 875
851 648
810 682
724 552
401 242
195 208
642 654
695 640
544 273
154 542
645 381
56 636
368 487
274 790
193 674
581 215
871 359
873 465
92 446
164 191
299 934
280 147
520 374
179 313
806 63
151 816
779 127
740 519
277 267
562 96
725 601
423 158
200 485
849 679
196 161
508 240
884 666
776 152
589 254
140 169
781 158
707 592
301 801
734 676
342 731
195 140
24 645
676 951
626 153
847 578
